张郭庄->善各庄
weekday
4 55
5 03 12 20 30 39 48 57
6 06 15 25 34 42 50 58
7 05 11 18 25 31 37 43 49 55
8 01 07 13 19 25 31 37 43 49 55
9 01 05 10 16 22 28 34 40 46 52 58
10 04 10 16 22 28 34 40 46 52 58
11 04 10 16 22 28 34 40 46 52 58
12 04 10 16 22 28 34 40 46 52 58
13 04 10 16 22 28 34 40 46 52 58
14 04 10 16 22 28 34 40 46 52 58
15 04 10 16 22 28 34 40 46 52 58
16 04 10 16 22 28 34 40 46 52 58
17 04 10 16 22 28 34 40 46 52 58
18 04 10 16 22 28 34 40 46 52 58
19 04 10 16 22 29 33 41 45 53 57
20 05 09 13 21 26 31 40 46 53
21 00 07 14 22 28 35 42 54
22 06 18 30 42

weekend
4 55
5 05 13 20 30 39 48 57
6 06 14 22 30 38 46 54
7 02 10 17 24 30 36 42 48 54
8 00 06 12 18 24 30 36 42 48 54
9 00 06 12 18 24 30 36 42 48 54
10 00 06 12 18 24 30 36 42 48 54
11 00 06 12 18 24 30 36 42 48 54
12 00 06 12 18 24 30 36 42 48 54
13 00 06 12 18 24 30 36 42 48 54
14 00 06 12 18 24 30 36 42 48 54
15 00 06 12 18 24 30 36 42 48 54
16 00 06 12 18 24 30 36 42 48 54
17 00 06 12 18 24 30 36 42 48 54
18 00 06 12 18 24 30 37 44 51 58
19 06 14 22 30 38 46 54
20 02 10 18 26 35 44 53
21 02 11 20 30 39 48 57
22 06 15 24 33 42


